6,0	0,0	9,7	18,3	0,0	0,0	0,0	0,0	0,0	19,1
16,0	12,9	0,0	17,8	14,0	0,0	0,0	17,1	0,0	0,0
0,0	0,0	6,1	0,0	18,8	8,2	0,0	0,0	19,0	0,0
6,9	0,0	12,6	0,0	0,0	0,0	16,8	0,0	0,0	0,0
0,0	15,6	0,0	18,7	18,7	0,0	0,0	6,6	0,0	0,0
0,0	12,7	5,3	0,0	15,9	12,5	0,0	0,0	14,2	0,0
0,0	7,4	0,0	12,1	0,0	0,0	12,4	0,0	0,0	13,6
10,1	0,0	9,7	0,0	0,0	0,0	0,0	0,0	0,0	11,6
0,0	17,9	0,0	12,5	10,9	0,0	0,0	6,7	0,0	0,0
0,0	0,0	7,5	0,0	0,0	17,0	15,2	0,0	0,0	16,1
0,0	11,1	0,0	0,0	12,8	0,0	16,2	0,0	11,0	14,5
11,8	0,0	6,9	0,0	8,7	0,0	17,1	8,9	7,8	0,0
0,0	6,6	0,0	0,0	0,0	5,6	0,0	17,6	7,0	11,7
15,9	6,9	9,8	0,0	0,0	10,8	0,0	16,7	10,1	0,0
16,5	0,0	15,8	0,0	11,0	5,3	16,5	12,9	0,0	0,0
0,0	14,9	0,0	17,3	0,0	5,5	0,0	8,6	0,0	0,0
6,5	0,0	11,9	18,3	16,2	0,0	0,0	7,9	0,0	0,0
0,0	0,0	14,2	0,0	0,0	18,1	9,1	0,0	15,3	13,6
15,1	0,0	0,0	7,3	6,4	12,4	19,0	19,6	0,0	6,5
0,0	19,5	0,0	16,5	0,0	0,0	11,4	0,0	6,7	19,8
									
3,9	4,2	4,8	3,6	4,0	4,3	3,4	3,1	3,0	2,6
